c preprocessed version of KittellGraph, 23 vertices, 63 edges
p td 23 63
0 1
0 2
0 4
0 5
0 6
0 7
1 10
1 11
1 13
1 2
1 7
10 11
10 13
10 20
10 21
11 12
11 14
11 15
11 21
12 14
12 15
12 16
15 16
15 17
15 21
15 22
17 18
17 19
17 22
18 19
19 20
19 22
2 11
2 14
2 4
20 21
20 22
21 22
3 12
3 14
3 16
3 4
3 5
4 14
4 5
5 16
5 6
6 15
6 16
6 17
6 18
6 7
7 13
7 18
7 8
8 13
8 18
8 19
8 9
9 10
9 13
9 19
9 20
